
Gurobi 10.0.1 (linux64) logging started Sun Nov 26 15:37:22 2023

Set parameter LogFile to value "ArtificialInstance/ExperimentV2/S4T3K3/BaRo/gurobi1.txt"
Gurobi Optimizer version 10.0.1 build v10.0.1rc0 (linux64)

CPU model: AMD EPYC 7H12 64-Core Processor, instruction set [SSE2|AVX|AVX2]
Thread count: 128 physical cores, 128 logical processors, using up to 32 threads

Academic license 656792 - for non-commercial use only - registered to b.___@student.vu.nl
Optimize a model with 3474 rows, 5201 columns and 18084 nonzeros
Model fingerprint: 0x97f43ce3
Variable types: 1 continuous, 5200 integer (5200 binary)
Coefficient statistics:
  Matrix range     [1e+00, 4e+01]
  Objective range  [1e+00, 2e+01]
  Bounds range     [1e+00, 1e+00]
  RHS range        [1e+00, 1e+00]
Presolve time: 0.03s
Presolved: 3474 rows, 5201 columns, 18084 nonzeros
Variable types: 1 continuous, 5200 integer (5200 binary)
Found heuristic solution: objective 362.7374090

Root relaxation: objective 4.714546e+01, 5622 iterations, 0.35 seconds (0.33 work units)

    Nodes    |    Current Node    |     Objective Bounds      |     Work
 Expl Unexpl |  Obj  Depth IntInf | Incumbent    BestBd   Gap | It/Node Time

     0     0   47.14546    0  725  362.73741   47.14546  87.0%     -    0s
H    0     0                     224.5863875   47.14546  79.0%     -    0s
     0     0   53.94673    0  969  224.58639   53.94673  76.0%     -    0s
H    0     0                      71.2143112   53.94673  24.2%     -    0s
     0     0   57.47828    0 1022   71.21431   57.47828  19.3%     -    1s
     0     0   57.52740    0 1010   71.21431   57.52740  19.2%     -    1s
     0     0   57.52993    0  985   71.21431   57.52993  19.2%     -    1s
     0     0   60.35564    0 1063   71.21431   60.35564  15.2%     -    1s
     0     0   60.35593    0 1073   71.21431   60.35593  15.2%     -    1s
H    0     0                      69.2758738   60.35593  12.9%     -    1s
     0     0   60.72523    0 1188   69.27587   60.72523  12.3%     -    1s
     0     0   60.76000    0 1132   69.27587   60.76000  12.3%     -    1s
     0     0   60.77948    0 1125   69.27587   60.77948  12.3%     -    2s
     0     0   60.78213    0 1128   69.27587   60.78213  12.3%     -    2s
     0     0   61.07347    0  993   69.27587   61.07347  11.8%     -    2s
     0     0   61.18694    0  963   69.27587   61.18694  11.7%     -    2s
     0     0   61.22161    0  988   69.27587   61.22161  11.6%     -    2s
     0     0   61.23026    0  986   69.27587   61.23026  11.6%     -    2s
     0     0   61.23269    0 1026   69.27587   61.23269  11.6%     -    2s
     0     0   61.25646    0  962   69.27587   61.25646  11.6%     -    2s
     0     0   61.26961    0  997   69.27587   61.26961  11.6%     -    2s
     0     0   61.27162    0 1020   69.27587   61.27162  11.6%     -    2s
     0     0   61.34434    0 1004   69.27587   61.34434  11.4%     -    2s
     0     0   61.36020    0 1022   69.27587   61.36020  11.4%     -    2s
     0     0   61.36287    0 1057   69.27587   61.36287  11.4%     -    2s
H    0     0                      68.5346241   61.36287  10.5%     -    2s
     0     0   61.38618    0 1036   68.53462   61.38618  10.4%     -    2s
     0     0   61.40703    0 1098   68.53462   61.40703  10.4%     -    2s
     0     0   61.41558    0 1121   68.53462   61.41558  10.4%     -    2s
     0     0   61.41636    0 1029   68.53462   61.41636  10.4%     -    2s
     0     0   61.44860    0 1079   68.53462   61.44860  10.3%     -    3s
     0     0   61.47100    0 1006   68.53462   61.47100  10.3%     -    3s
     0     0   61.48958    0  998   68.53462   61.48958  10.3%     -    3s
     0     0   61.49212    0 1085   68.53462   61.49212  10.3%     -    3s
     0     0   61.54378    0  985   68.53462   61.54378  10.2%     -    3s
     0     0   61.56870    0 1013   68.53462   61.56870  10.2%     -    3s
     0     0   61.58463    0 1020   68.53462   61.58463  10.1%     -    3s
     0     0   61.58467    0 1024   68.53462   61.58467  10.1%     -    3s
     0     0   61.58666    0 1088   68.53462   61.58666  10.1%     -    3s
     0     0   61.58812    0 1038   68.53462   61.58812  10.1%     -    3s
     0     0   61.61094    0 1088   68.53462   61.61094  10.1%     -    3s
     0     0   61.61094    0  984   68.53462   61.61094  10.1%     -    3s
H    0     0                      68.3471120   61.61094  9.86%     -    3s
H    0     0                      68.2013317   61.61094  9.66%     -    4s
     0     2   61.61094    0  959   68.20133   61.61094  9.66%     -    4s
     1     4   61.65355    1  860   68.20133   61.62508  9.64%  1635    5s

Cutting planes:
  Gomory: 8
  Zero half: 215
  RLT: 169

Explored 305 nodes (133554 simplex iterations) in 7.26 seconds (6.24 work units)
Thread count was 32 (of 128 available processors)

Solution count 7: 68.2013 68.3471 68.5346 ... 362.737

Optimal solution found (tolerance 1.00e-04)
Best objective 6.820133171192e+01, best bound 6.820133171192e+01, gap 0.0000%
